Cost: 1802
0-38-2-3-64-61-28-27-26-21-48-35-20-19-46-10-60-15-13-16-17-18-1-37-0
0-34-56-32-29-30-53-31-62-52-51-24-23-22-59-63-55-33-0
0-4-39-7-36-8-40-41-9-42-43-44-11-45-14-47-5-6-57-58-0
Cost: 1802
0-38-2-3-64-61-28-27-26-21-48-35-20-19-46-10-60-15-13-16-17-18-1-37-0
0-34-56-32-29-30-53-31-62-52-51-24-23-22-59-63-55-33-0
0-4-39-7-36-8-40-41-9-42-43-44-11-45-14-47-5-6-57-58-0
Cost: 1802
0-38-2-3-64-61-28-27-26-21-48-35-20-19-46-10-60-15-13-16-17-18-1-37-0
0-34-56-32-29-30-53-31-62-52-51-24-23-22-59-63-55-33-0
0-4-39-7-36-8-40-41-9-42-43-44-11-45-14-47-5-6-57-58-0
Cost: 1802
0-38-2-3-64-61-28-27-26-21-48-35-20-19-46-10-60-15-13-16-17-18-1-37-0
0-34-56-32-29-30-53-31-62-52-51-24-23-22-59-63-55-33-0
0-4-39-7-36-8-40-41-9-42-43-44-11-45-14-47-5-6-57-58-0
Cost: 1802
0-38-2-3-64-61-28-27-26-21-48-35-20-19-46-10-60-15-13-16-17-18-1-37-0
0-34-56-32-29-30-53-31-62-52-51-24-23-22-59-63-55-33-0
0-4-39-7-36-8-40-41-9-42-43-44-11-45-14-47-5-6-57-58-0
Cost: 1802
0-38-2-3-64-61-28-27-26-21-48-35-20-19-46-10-60-15-13-16-17-18-1-37-0
0-34-56-32-29-30-53-31-62-52-51-24-23-22-59-63-55-33-0
0-4-39-7-36-8-40-41-9-42-43-44-11-45-14-47-5-6-57-58-0
Cost: 1802
0-38-2-3-64-61-28-27-26-21-48-35-20-19-46-10-60-15-13-16-17-18-1-37-0
0-34-56-32-29-30-53-31-62-52-51-24-23-22-59-63-55-33-0
0-4-39-7-36-8-40-41-9-42-43-44-11-45-14-47-5-6-57-58-0
Cost: 1802
0-38-2-3-64-61-28-27-26-21-48-35-20-19-46-10-60-15-13-16-17-18-1-37-0
0-34-56-32-29-30-53-31-62-52-51-24-23-22-59-63-55-33-0
0-4-39-7-36-8-40-41-9-42-43-44-11-45-14-47-5-6-57-58-0
Cost: 1802
0-38-2-3-64-61-28-27-26-21-48-35-20-19-46-10-60-15-13-16-17-18-1-37-0
0-34-56-32-29-30-53-31-62-52-51-24-23-22-59-63-55-33-0
0-4-39-7-36-8-40-41-9-42-43-44-11-45-14-47-5-6-57-58-0
Cost: 1802
0-38-2-3-64-61-28-27-26-21-48-35-20-19-46-10-60-15-13-16-17-18-1-37-0
0-34-56-32-29-30-53-31-62-52-51-24-23-22-59-63-55-33-0
0-4-39-7-36-8-40-41-9-42-43-44-11-45-14-47-5-6-57-58-0
Cost: 1802
0-38-2-3-64-61-28-27-26-21-48-35-20-19-46-45-10-60-14-47-5-6-57-58-0
0-4-39-7-36-8-40-41-9-42-43-44-11-15-13-16-17-18-1-37-0
0-34-56-32-30-53-31-62-52-51-24-23-22-59-63-29-55-33-0
Cost: 1802
0-38-2-3-64-61-28-27-26-21-48-35-20-19-46-45-10-60-14-47-5-6-57-58-0
0-4-39-7-36-8-40-41-9-42-43-44-11-15-13-16-17-18-1-37-0
0-34-56-32-30-53-31-62-52-51-24-23-22-59-63-29-55-33-0
Cost: 1802
0-38-2-3-64-61-28-27-26-21-48-35-20-19-46-45-10-60-14-47-5-6-57-58-0
0-4-39-7-36-8-40-41-9-42-43-44-11-15-13-16-17-18-1-37-0
0-34-56-32-30-53-31-62-52-51-24-23-22-59-63-29-55-33-0
Cost: 1802
0-38-2-3-64-61-28-27-26-21-48-35-20-19-46-45-10-60-14-47-5-6-57-58-0
0-4-39-7-36-8-40-41-9-42-43-44-11-15-13-16-17-18-1-37-0
0-34-56-32-30-53-31-62-52-51-24-23-22-59-63-29-55-33-0
Cost: 1802
0-38-2-3-64-61-28-27-26-21-48-35-20-19-46-45-10-60-14-47-5-6-57-58-0
0-4-39-7-36-8-40-41-9-42-43-44-11-15-13-16-17-18-1-37-0
0-34-56-32-30-53-31-62-52-51-24-23-22-59-63-29-55-33-0
Cost: 1802
0-38-2-3-64-61-28-27-26-21-48-35-20-19-46-45-10-60-14-47-5-6-57-58-0
0-4-39-7-36-8-40-41-9-42-43-44-11-15-13-16-17-18-1-37-0
0-34-56-32-30-53-31-62-52-51-24-23-22-59-63-29-55-33-0
Cost: 1802
0-34-32-30-53-31-62-51-24-23-49-22-59-63-29-55-33-0
0-38-4-39-7-36-8-40-41-9-42-43-44-11-10-60-15-13-16-17-18-1-37-0
0-2-3-64-61-28-27-26-21-48-35-20-19-46-45-14-47-5-6-57-58-56-0
Cost: 1802
0-38-2-3-64-61-28-27-26-21-48-35-20-19-46-45-10-60-14-47-5-6-57-58-0
0-4-39-7-36-8-40-41-9-42-43-44-11-15-13-16-17-18-1-37-0
0-34-56-32-30-53-31-62-52-51-24-23-22-59-63-29-55-33-0
Cost: 1802
0-38-2-3-64-61-28-27-26-21-48-35-20-19-46-45-10-60-14-47-5-6-57-58-0
0-4-39-7-36-8-40-41-9-42-43-44-11-15-13-16-17-18-1-37-0
0-34-56-32-30-53-31-62-52-51-24-23-22-59-63-29-55-33-0
Cost: 1802
0-38-2-3-64-61-28-27-26-21-48-35-20-19-46-45-10-60-14-47-5-6-57-58-0
0-4-39-7-36-8-40-41-9-42-43-44-11-15-13-16-17-18-1-37-0
0-34-56-32-30-53-31-62-52-51-24-23-22-59-63-29-55-33-0
Cost: 1802
0-38-2-3-64-61-28-27-26-21-48-35-20-19-46-45-10-60-14-47-5-6-57-58-0
0-4-39-7-36-8-40-41-9-42-43-44-11-15-13-16-17-18-1-37-0
0-34-56-32-30-53-31-62-52-51-24-23-22-59-63-29-55-33-0
Cost: 1802
0-38-2-3-64-61-28-27-26-21-48-35-20-19-46-45-10-60-14-47-5-6-57-58-0
0-4-39-7-36-8-40-41-9-42-43-44-11-15-13-16-17-18-1-37-0
0-34-56-32-30-53-31-62-52-51-24-23-22-59-63-29-55-33-0
Cost: 1802
0-38-2-3-64-61-28-27-26-21-48-35-20-19-46-45-10-60-14-47-5-6-57-58-0
0-4-39-7-36-8-40-41-9-42-43-44-11-15-13-16-17-18-1-37-0
0-34-56-32-30-53-31-62-52-51-24-23-22-59-63-29-55-33-0
Cost: 1802
0-38-2-3-64-61-28-27-26-21-48-35-20-19-46-45-10-60-14-47-5-6-57-58-0
0-4-39-7-36-8-40-41-9-42-43-44-11-15-13-16-17-18-1-37-0
0-34-56-32-30-53-31-62-52-51-24-23-22-59-63-29-55-33-0
Cost: 1802
0-38-4-39-7-36-8-40-41-9-42-43-44-11-60-15-13-16-17-18-61-1-37-0
0-34-56-32-52-30-53-31-62-51-24-23-22-59-25-63-29-55-33-0
0-2-3-64-28-26-21-48-35-20-19-46-45-10-14-47-5-6-57-58-0
Cost: 1802
0-38-2-3-64-61-28-27-26-21-48-35-20-19-46-45-10-60-14-47-5-6-57-58-0
0-4-39-7-36-8-40-41-9-42-43-44-11-15-13-16-17-18-1-37-0
0-34-56-32-30-53-31-62-52-51-24-23-22-59-63-29-55-33-0
Cost: 1802
0-38-2-3-64-61-28-27-26-21-48-35-20-19-46-45-10-60-14-47-5-6-57-58-0
0-4-39-7-36-8-40-41-9-42-43-44-11-15-13-16-17-18-1-37-0
0-34-56-32-30-53-31-62-52-51-24-23-22-59-63-29-55-33-0
Cost: 1802
0-38-2-3-64-61-28-27-26-21-48-35-20-19-46-45-10-60-14-47-5-6-57-58-0
0-4-39-7-36-8-40-41-9-42-43-44-11-15-13-16-17-18-1-37-0
0-34-56-32-30-53-31-62-52-51-24-23-22-59-63-29-55-33-0
Cost: 1802
0-38-2-3-64-61-28-27-26-21-48-35-20-19-46-45-10-60-14-47-5-6-57-58-0
0-4-39-7-36-8-40-41-9-42-43-44-11-15-13-16-17-18-1-37-0
0-34-56-32-30-53-31-62-52-51-24-23-22-59-63-29-55-33-0
Cost: 1802
0-38-2-3-64-61-28-27-26-21-48-35-20-19-46-45-10-60-15-13-16-17-18-1-37-0
0-34-56-32-29-30-53-31-62-52-24-23-49-22-59-63-55-33-0
0-4-39-7-36-8-40-41-9-42-43-44-11-14-47-5-6-57-58-0
Cost: 1802
0-38-3-64-28-27-21-35-20-19-46-60-15-13-16-17-18-61-1-37-0
0-2-4-39-7-36-8-40-41-9-42-43-44-11-45-10-14-47-5-6-57-58-0
0-34-56-32-52-30-53-31-62-51-24-23-49-22-59-25-63-29-55-33-0
Cost: 1802
0-34-32-29-30-53-31-62-51-24-23-49-22-59-25-63-55-33-0
0-38-4-39-7-36-8-40-41-9-42-43-44-11-10-15-13-16-17-18-61-1-37-0
0-2-3-64-28-26-21-48-35-20-19-46-45-60-14-47-5-6-57-58-56-0
Cost: 1802
0-2-4-39-7-36-8-40-41-9-42-43-44-11-45-14-47-5-6-57-58-34-0
0-56-32-30-53-31-62-51-24-23-49-22-59-63-29-55-33-0
0-38-3-64-61-28-27-26-21-48-35-20-19-46-10-60-15-13-16-17-18-1-37-0
Cost: 1802
0-38-3-64-61-28-26-21-48-35-20-19-46-10-14-47-5-6-57-58-34-0
0-32-29-30-53-31-62-51-24-23-49-22-59-25-63-55-33-56-0
0-2-4-39-7-36-8-40-41-9-42-43-44-11-45-60-15-13-16-17-18-1-37-0
